100 8
224 785
754 208
434 372
854 527
255 771
941 641
498 348
810 668
397 631
750 545
525 573
304 206
583 338
310 138
374 144
794 495
964 775
560 748
927 891
620 329
285 237
884 855
195 829
473 468
361 167
890 305
402 219
550 167
540 333
206 159
880 551
812 226
576 245
877 304
297 644
297 612
398 630
883 322
422 788
393 100
346 653
223 701
418 782
282 875
613 814
676 305
864 899
201 779
480 475
297 634
587 344
243 820
340 607
382 541
854 578
971 359
951 234
279 758
170 742
433 601
326 599
360 641
609 497
830 580
583 699
456 813
980 823
775 656
240 836
290 940
540 759
883 744
275 703
448 881
636 785
280 794
944 902
953 773
503 103
383 935
900 611
427 794
299 756
491 834
404 825
536 624
808 170
849 528
290 528
897 307
903 528
574 686
894 462
548 698
365 105
452 714
496 217
844 773
507 300
267 167
